p cnf 1866
-25 -585
-26 -588
-27 -591
-28 -594
-29 -597
-30 -600
-31 -603
-32 -606
-33 -609
-34 -612
-35 -615
-36 -618
-37 -621
-38 -624
-39 -627
-40 -630
-41 -633
-42 -636
-43 -639
-44 -642
-45 -645
-46 -648
-47 -651
-48 -654
-49 655
-50 656
-51 657
-52 658
-53 659
-54 660
-55 661
-56 662
-57 663
-58 664
-59 665
-60 666
-61 667
-62 668
-63 669
-64 670
-65 671
-66 -26
-66 -27
26 27 66
-67 -28
-67 -29
28 29 67
-68 -30
-68 -31
30 31 68
-69 -32
-69 -33
32 33 69
-70 -34
-70 -35
34 35 70
-71 -36
-71 -37
36 37 71
-72 -38
-72 -39
38 39 72
-73 -40
-73 -41
40 41 73
-74 -42
-74 -43
42 43 74
-75 -44
-75 -45
44 45 75
-76 -46
-76 -47
46 47 76
-77 -48
-77 -49
48 49 77
-78 -50
-78 -51
50 51 78
-79 -52
-79 -53
52 53 79
-80 -54
-80 -55
54 55 80
-81 -56
-81 -57
56 57 81
-82 -58
-82 -59
58 59 82
-83 -60
-83 -61
60 61 83
-84 -62
-84 -63
62 63 84
-85 -64
-85 -65
64 65 85
-86 66
-86 67
-66 -67 86
-87 68
-87 69
-68 -69 87
-88 70
-88 71
-70 -71 88
-89 72
-89 73
-72 -73 89
-90 74
-90 75
-74 -75 90
-91 76
-91 77
-76 -77 91
-92 78
-92 79
-78 -79 92
-93 80
-93 81
-80 -81 93
-94 82
-94 83
-82 -83 94
-95 84
-95 85
-84 -85 95
-96 86
-96 87
-86 -87 96
-97 88
-97 89
-88 -89 97
-98 90
-98 91
-90 -91 98
-99 92
-99 93
-92 -93 99
-100 94
-100 95
-94 -95 100
-101 96
-101 97
-96 -97 101
-102 98
-102 99
-98 -99 102
-103 101
-103 102
-101 -102 103
-104 100
-104 103
-100 -103 104
-105 -25
-105 26
25 -26 105
-106 25
-106 -26
-25 26 106
-107 -105
-107 -106
105 106 107
-108 25
-108 26
-25 -26 108
-109 -25
-109 -107
25 107 109
-110 25
-110 107
-25 -107 110
-111 -109
-111 -110
109 110 111
-112 25
-112 -107
-25 107 112
-113 -108
-113 -112
108 112 113
-114 -26
-114 27
26 -27 114
-115 26
-115 -27
-26 27 115
-116 -114
-116 -115
114 115 116
-117 26
-117 27
-26 -27 117
-118 113
-118 -116
-113 116 118
-119 -113
-119 116
113 -116 119
-120 -118
-120 -119
118 119 120
-121 -113
-121 -116
113 116 121
-122 -117
-122 -121
117 121 122
-123 -27
-123 28
27 -28 123
-124 27
-124 -28
-27 28 124
-125 -123
-125 -124
123 124 125
-126 27
-126 28
-27 -28 126
-127 122
-127 -125
-122 125 127
-128 -122
-128 125
122 -125 128
-129 -127
-129 -128
127 128 129
-130 -122
-130 -125
122 125 130
-131 -126
-131 -130
126 130 131
-132 -28
-132 29
28 -29 132
-133 28
-133 -29
-28 29 133
-134 -132
-134 -133
132 133 134
-135 28
-135 29
-28 -29 135
-136 131
-136 -134
-131 134 136
-137 -131
-137 134
131 -134 137
-138 -136
-138 -137
136 137 138
-139 -131
-139 -134
131 134 139
-140 -135
-140 -139
135 139 140
-141 -29
-141 30
29 -30 141
-142 29
-142 -30
-29 30 142
-143 -141
-143 -142
141 142 143
-144 29
-144 30
-29 -30 144
-145 140
-145 -143
-140 143 145
-146 -140
-146 143
140 -143 146
-147 -145
-147 -146
145 146 147
-148 -140
-148 -143
140 143 148
-149 -144
-149 -148
144 148 149
-150 -30
-150 31
30 -31 150
-151 30
-151 -31
-30 31 151
-152 -150
-152 -151
150 151 152
-153 30
-153 31
-30 -31 153
-154 149
-154 -152
-149 152 154
-155 -149
-155 152
149 -152 155
-156 -154
-156 -155
154 155 156
-157 -149
-157 -152
149 152 157
-158 -153
-158 -157
153 157 158
-159 -31
-159 32
31 -32 159
-160 31
-160 -32
-31 32 160
-161 -159
-161 -160
159 160 161
-162 31
-162 32
-31 -32 162
-163 158
-163 -161
-158 161 163
-164 -158
-164 161
158 -161 164
-165 -163
-165 -164
163 164 165
-166 -158
-166 -161
158 161 166
-167 -162
-167 -166
162 166 167
-168 -32
-168 33
32 -33 168
-169 32
-169 -33
-32 33 169
-170 -168
-170 -169
168 169 170
-171 32
-171 33
-32 -33 171
-172 167
-172 -170
-167 170 172
-173 -167
-173 170
167 -170 173
-174 -172
-174 -173
172 173 174
-175 -167
-175 -170
167 170 175
-176 -171
-176 -175
171 175 176
-177 -33
-177 34
33 -34 177
-178 33
-178 -34
-33 34 178
-179 -177
-179 -178
177 178 179
-180 33
-180 34
-33 -34 180
-181 176
-181 -179
-176 179 181
-182 -176
-182 179
176 -179 182
-183 -181
-183 -182
181 182 183
-184 -176
-184 -179
176 179 184
-185 -180
-185 -184
180 184 185
-186 -34
-186 35
34 -35 186
-187 34
-187 -35
-34 35 187
-188 -186
-188 -187
186 187 188
-189 34
-189 35
-34 -35 189
-190 185
-190 -188
-185 188 190
-191 -185
-191 188
185 -188 191
-192 -190
-192 -191
190 191 192
-193 -185
-193 -188
185 188 193
-194 -189
-194 -193
189 193 194
-195 -35
-195 36
35 -36 195
-196 35
-196 -36
-35 36 196
-197 -195
-197 -196
195 196 197
-198 35
-198 36
-35 -36 198
-199 194
-199 -197
-194 197 199
-200 -194
-200 197
194 -197 200
-201 -199
-201 -200
199 200 201
-202 -194
-202 -197
194 197 202
-203 -198
-203 -202
198 202 203
-204 -36
-204 37
36 -37 204
-205 36
-205 -37
-36 37 205
-206 -204
-206 -205
204 205 206
-207 36
-207 37
-36 -37 207
-208 203
-208 -206
-203 206 208
-209 -203
-209 206
203 -206 209
-210 -208
-210 -209
208 209 210
-211 -203
-211 -206
203 206 211
-212 -207
-212 -211
207 211 212
-213 -37
-213 38
37 -38 213
-214 37
-214 -38
-37 38 214
-215 -213
-215 -214
213 214 215
-216 37
-216 38
-37 -38 216
-217 212
-217 -215
-212 215 217
-218 -212
-218 215
212 -215 218
-219 -217
-219 -218
217 218 219
-220 -212
-220 -215
212 215 220
-221 -216
-221 -220
216 220 221
-222 -38
-222 39
38 -39 222
-223 38
-223 -39
-38 39 223
-224 -222
-224 -223
222 223 224
-225 38
-225 39
-38 -39 225
-226 221
-226 -224
-221 224 226
-227 -221
-227 224
221 -224 227
-228 -226
-228 -227
226 227 228
-229 -221
-229 -224
221 224 229
-230 -225
-230 -229
225 229 230
-231 -39
-231 40
39 -40 231
-232 39
-232 -40
-39 40 232
-233 -231
-233 -232
231 232 233
-234 39
-234 40
-39 -40 234
-235 230
-235 -233
-230 233 235
-236 -230
-236 233
230 -233 236
-237 -235
-237 -236
235 236 237
-238 -230
-238 -233
230 233 238
-239 -234
-239 -238
234 238 239
-240 -40
-240 41
40 -41 240
-241 40
-241 -41
-40 41 241
-242 -240
-242 -241
240 241 242
-243 40
-243 41
-40 -41 243
-244 239
-244 -242
-239 242 244
-245 -239
-245 242
239 -242 245
-246 -244
-246 -245
244 245 246
-247 -239
-247 -242
239 242 247
-248 -243
-248 -247
243 247 248
-249 -41
-249 42
41 -42 249
-250 41
-250 -42
-41 42 250
-251 -249
-251 -250
249 250 251
-252 41
-252 42
-41 -42 252
-253 248
-253 -251
-248 251 253
-254 -248
-254 251
248 -251 254
-255 -253
-255 -254
253 254 255
-256 -248
-256 -251
248 251 256
-257 -252
-257 -256
252 256 257
-258 -42
-258 43
42 -43 258
-259 42
-259 -43
-42 43 259
-260 -258
-260 -259
258 259 260
-261 42
-261 43
-42 -43 261
-262 257
-262 -260
-257 260 262
-263 -257
-263 260
257 -260 263
-264 -262
-264 -263
262 263 264
-265 -257
-265 -260
257 260 265
-266 -261
-266 -265
261 265 266
-267 -43
-267 44
43 -44 267
-268 43
-268 -44
-43 44 268
-269 -267
-269 -268
267 268 269
-270 43
-270 44
-43 -44 270
-271 266
-271 -269
-266 269 271
-272 -266
-272 269
266 -269 272
-273 -271
-273 -272
271 272 273
-274 -266
-274 -269
266 269 274
-275 -270
-275 -274
270 274 275
-276 -44
-276 45
44 -45 276
-277 44
-277 -45
-44 45 277
-278 -276
-278 -277
276 277 278
-279 44
-279 45
-44 -45 279
-280 275
-280 -278
-275 278 280
-281 -275
-281 278
275 -278 281
-282 -280
-282 -281
280 281 282
-283 -275
-283 -278
275 278 283
-284 -279
-284 -283
279 283 284
-285 -45
-285 46
45 -46 285
-286 45
-286 -46
-45 46 286
-287 -285
-287 -286
285 286 287
-288 45
-288 46
-45 -46 288
-289 284
-289 -287
-284 287 289
-290 -284
-290 287
284 -287 290
-291 -289
-291 -290
289 290 291
-292 -284
-292 -287
284 287 292
-293 -288
-293 -292
288 292 293
-294 -46
-294 47
46 -47 294
-295 46
-295 -47
-46 47 295
-296 -294
-296 -295
294 295 296
-297 46
-297 47
-46 -47 297
-298 293
-298 -296
-293 296 298
-299 -293
-299 296
293 -296 299
-300 -298
-300 -299
298 299 300
-301 -293
-301 -296
293 296 301
-302 -297
-302 -301
297 301 302
-303 -47
-303 48
47 -48 303
-304 47
-304 -48
-47 48 304
-305 -303
-305 -304
303 304 305
-306 47
-306 48
-47 -48 306
-307 302
-307 -305
-302 305 307
-308 -302
-308 305
302 -305 308
-309 -307
-309 -308
307 308 309
-310 -302
-310 -305
302 305 310
-311 -306
-311 -310
306 310 311
-312 -48
-312 49
48 -49 312
-313 48
-313 -49
-48 49 313
-314 -312
-314 -313
312 313 314
-315 48
-315 49
-48 -49 315
-316 311
-316 -314
-311 314 316
-317 -311
-317 314
311 -314 317
-318 -316
-318 -317
316 317 318
-319 -311
-319 -314
311 314 319
-320 -315
-320 -319
315 319 320
-321 -49
-321 50
49 -50 321
-322 49
-322 -50
-49 50 322
-323 -321
-323 -322
321 322 323
-324 49
-324 50
-49 -50 324
-325 320
-325 -323
-320 323 325
-326 -320
-326 323
320 -323 326
-327 -325
-327 -326
325 326 327
-328 -320
-328 -323
320 323 328
-329 -324
-329 -328
324 328 329
-330 -50
-330 51
50 -51 330
-331 50
-331 -51
-50 51 331
-332 -330
-332 -331
330 331 332
-333 50
-333 51
-50 -51 333
-334 329
-334 -332
-329 332 334
-335 -329
-335 332
329 -332 335
-336 -334
-336 -335
334 335 336
-337 -329
-337 -332
329 332 337
-338 -333
-338 -337
333 337 338
-339 -51
-339 52
51 -52 339
-340 51
-340 -52
-51 52 340
-341 -339
-341 -340
339 340 341
-342 51
-342 52
-51 -52 342
-343 338
-343 -341
-338 341 343
-344 -338
-344 341
338 -341 344
-345 -343
-345 -344
343 344 345
-346 -338
-346 -341
338 341 346
-347 -342
-347 -346
342 346 347
-348 -52
-348 53
52 -53 348
-349 52
-349 -53
-52 53 349
-350 -348
-350 -349
348 349 350
-351 52
-351 53
-52 -53 351
-352 347
-352 -350
-347 350 352
-353 -347
-353 350
347 -350 353
-354 -352
-354 -353
352 353 354
-355 -347
-355 -350
347 350 355
-356 -351
-356 -355
351 355 356
-357 -53
-357 54
53 -54 357
-358 53
-358 -54
-53 54 358
-359 -357
-359 -358
357 358 359
-360 53
-360 54
-53 -54 360
-361 356
-361 -359
-356 359 361
-362 -356
-362 359
356 -359 362
-363 -361
-363 -362
361 362 363
-364 -356
-364 -359
356 359 364
-365 -360
-365 -364
360 364 365
-366 -54
-366 55
54 -55 366
-367 54
-367 -55
-54 55 367
-368 -366
-368 -367
366 367 368
-369 54
-369 55
-54 -55 369
-370 365
-370 -368
-365 368 370
-371 -365
-371 368
365 -368 371
-372 -370
-372 -371
370 371 372
-373 -365
-373 -368
365 368 373
-374 -369
-374 -373
369 373 374
-375 -55
-375 56
55 -56 375
-376 55
-376 -56
-55 56 376
-377 -375
-377 -376
375 376 377
-378 55
-378 56
-55 -56 378
-379 374
-379 -377
-374 377 379
-380 -374
-380 377
374 -377 380
-381 -379
-381 -380
379 380 381
-382 -374
-382 -377
374 377 382
-383 -378
-383 -382
378 382 383
-384 -56
-384 57
56 -57 384
-385 56
-385 -57
-56 57 385
-386 -384
-386 -385
384 385 386
-387 56
-387 57
-56 -57 387
-388 383
-388 -386
-383 386 388
-389 -383
-389 386
383 -386 389
-390 -388
-390 -389
388 389 390
-391 -383
-391 -386
383 386 391
-392 -387
-392 -391
387 391 392
-393 -57
-393 58
57 -58 393
-394 57
-394 -58
-57 58 394
-395 -393
-395 -394
393 394 395
-396 57
-396 58
-57 -58 396
-397 392
-397 -395
-392 395 397
-398 -392
-398 395
392 -395 398
-399 -397
-399 -398
397 398 399
-400 -392
-400 -395
392 395 400
-401 -396
-401 -400
396 400 401
-402 -58
-402 59
58 -59 402
-403 58
-403 -59
-58 59 403
-404 -402
-404 -403
402 403 404
-405 58
-405 59
-58 -59 405
-406 401
-406 -404
-401 404 406
-407 -401
-407 404
401 -404 407
-408 -406
-408 -407
406 407 408
-409 -401
-409 -404
401 404 409
-410 -405
-410 -409
405 409 410
-411 -59
-411 60
59 -60 411
-412 59
-412 -60
-59 60 412
-413 -411
-413 -412
411 412 413
-414 59
-414 60
-59 -60 414
-415 410
-415 -413
-410 413 415
-416 -410
-416 413
410 -413 416
-417 -415
-417 -416
415 416 417
-418 -410
-418 -413
410 413 418
-419 -414
-419 -418
414 418 419
-420 -60
-420 61
60 -61 420
-421 60
-421 -61
-60 61 421
-422 -420
-422 -421
420 421 422
-423 60
-423 61
-60 -61 423
-424 419
-424 -422
-419 422 424
-425 -419
-425 422
419 -422 425
-426 -424
-426 -425
424 425 426
-427 -419
-427 -422
419 422 427
-428 -423
-428 -427
423 427 428
-429 -61
-429 62
61 -62 429
-430 61
-430 -62
-61 62 430
-431 -429
-431 -430
429 430 431
-432 61
-432 62
-61 -62 432
-433 428
-433 -431
-428 431 433
-434 -428
-434 431
428 -431 434
-435 -433
-435 -434
433 434 435
-436 -428
-436 -431
428 431 436
-437 -432
-437 -436
432 436 437
-438 -62
-438 63
62 -63 438
-439 62
-439 -63
-62 63 439
-440 -438
-440 -439
438 439 440
-441 62
-441 63
-62 -63 441
-442 437
-442 -440
-437 440 442
-443 -437
-443 440
437 -440 443
-444 -442
-444 -443
442 443 444
-445 -437
-445 -440
437 440 445
-446 -441
-446 -445
441 445 446
-447 -63
-447 64
63 -64 447
-448 63
-448 -64
-63 64 448
-449 -447
-449 -448
447 448 449
-450 63
-450 64
-63 -64 450
-451 446
-451 -449
-446 449 451
-452 -446
-452 449
446 -449 452
-453 -451
-453 -452
451 452 453
-454 -446
-454 -449
446 449 454
-455 -450
-455 -454
450 454 455
-456 -64
-456 65
64 -65 456
-457 64
-457 -65
-64 65 457
-458 -456
-458 -457
456 457 458
-459 64
-459 65
-64 -65 459
-460 455
-460 -458
-455 458 460
-461 -455
-461 458
455 -458 461
-462 -460
-462 -461
460 461 462
-463 -455
-463 -458
455 458 463
-464 -459
-464 -463
459 463 464
-465 25
-465 -111
-25 111 465
-466 -25
-466 27
25 -27 466
-467 -465
-467 -466
465 466 467
-468 25
-468 -120
-25 120 468
-469 -25
-469 28
25 -28 469
-470 -468
-470 -469
468 469 470
-471 25
-471 -129
-25 129 471
-472 -25
-472 29
25 -29 472
-473 -471
-473 -472
471 472 473
-474 25
-474 -138
-25 138 474
-475 -25
-475 30
25 -30 475
-476 -474
-476 -475
474 475 476
-477 25
-477 -147
-25 147 477
-478 -25
-478 31
25 -31 478
-479 -477
-479 -478
477 478 479
-480 25
-480 -156
-25 156 480
-481 -25
-481 32
25 -32 481
-482 -480
-482 -481
480 481 482
-483 25
-483 -165
-25 165 483
-484 -25
-484 33
25 -33 484
-485 -483
-485 -484
483 484 485
-486 25
-486 -174
-25 174 486
-487 -25
-487 34
25 -34 487
-488 -486
-488 -487
486 487 488
-489 25
-489 -183
-25 183 489
-490 -25
-490 35
25 -35 490
-491 -489
-491 -490
489 490 491
-492 25
-492 -192
-25 192 492
-493 -25
-493 36
25 -36 493
-494 -492
-494 -493
492 493 494
-495 25
-495 -201
-25 201 495
-496 -25
-496 37
25 -37 496
-497 -495
-497 -496
495 496 497
-498 25
-498 -210
-25 210 498
-499 -25
-499 38
25 -38 499
-500 -498
-500 -499
498 499 500
-501 25
-501 -219
-25 219 501
-502 -25
-502 39
25 -39 502
-503 -501
-503 -502
501 502 503
-504 25
-504 -228
-25 228 504
-505 -25
-505 40
25 -40 505
-506 -504
-506 -505
504 505 506
-507 25
-507 -237
-25 237 507
-508 -25
-508 41
25 -41 508
-509 -507
-509 -508
507 508 509
-510 25
-510 -246
-25 246 510
-511 -25
-511 42
25 -42 511
-512 -510
-512 -511
510 511 512
-513 25
-513 -255
-25 255 513
-514 -25
-514 43
25 -43 514
-515 -513
-515 -514
513 514 515
-516 25
-516 -264
-25 264 516
-517 -25
-517 44
25 -44 517
-518 -516
-518 -517
516 517 518
-519 25
-519 -273
-25 273 519
-520 -25
-520 45
25 -45 520
-521 -519
-521 -520
519 520 521
-522 25
-522 -282
-25 282 522
-523 -25
-523 46
25 -46 523
-524 -522
-524 -523
522 523 524
-525 25
-525 -291
-25 291 525
-526 -25
-526 47
25 -47 526
-527 -525
-527 -526
525 526 527
-528 25
-528 -300
-25 300 528
-529 -25
-529 48
25 -48 529
-530 -528
-530 -529
528 529 530
-531 25
-531 -309
-25 309 531
-532 -25
-532 49
25 -49 532
-533 -531
-533 -532
531 532 533
-534 25
-534 -318
-25 318 534
-535 -25
-535 50
25 -50 535
-536 -534
-536 -535
534 535 536
-537 25
-537 -327
-25 327 537
-538 -25
-538 51
25 -51 538
-539 -537
-539 -538
537 538 539
-540 25
-540 -336
-25 336 540
-541 -25
-541 52
25 -52 541
-542 -540
-542 -541
540 541 542
-543 25
-543 -345
-25 345 543
-544 -25
-544 53
25 -53 544
-545 -543
-545 -544
543 544 545
-546 25
-546 -354
-25 354 546
-547 -25
-547 54
25 -54 547
-548 -546
-548 -547
546 547 548
-549 25
-549 -363
-25 363 549
-550 -25
-550 55
25 -55 550
-551 -549
-551 -550
549 550 551
-552 25
-552 -372
-25 372 552
-553 -25
-553 56
25 -56 553
-554 -552
-554 -553
552 553 554
-555 25
-555 -381
-25 381 555
-556 -25
-556 57
25 -57 556
-557 -555
-557 -556
555 556 557
-558 25
-558 -390
-25 390 558
-559 -25
-559 58
25 -58 559
-560 -558
-560 -559
558 559 560
-561 25
-561 -399
-25 399 561
-562 -25
-562 59
25 -59 562
-563 -561
-563 -562
561 562 563
-564 25
-564 -408
-25 408 564
-565 -25
-565 60
25 -60 565
-566 -564
-566 -565
564 565 566
-567 25
-567 -417
-25 417 567
-568 -25
-568 61
25 -61 568
-569 -567
-569 -568
567 568 569
-570 25
-570 -426
-25 426 570
-571 -25
-571 62
25 -62 571
-572 -570
-572 -571
570 571 572
-573 25
-573 -435
-25 435 573
-574 -25
-574 63
25 -63 574
-575 -573
-575 -574
573 574 575
-576 25
-576 -444
-25 444 576
-577 -25
-577 64
25 -64 577
-578 -576
-578 -577
576 577 578
-579 25
-579 -453
-25 453 579
-580 -25
-580 65
25 -65 580
-581 -579
-581 -580
579 580 581
-582 25
-582 -462
-25 462 582
-583 1
-583 104
-1 -104 583
-584 -104
-584 105
104 -105 584
-585 -583
-585 -584
583 584 585
-586 2
-586 104
-2 -104 586
-587 -104
-587 -467
104 467 587
-588 -586
-588 -587
586 587 588
-589 3
-589 104
-3 -104 589
-590 -104
-590 -470
104 470 590
-591 -589
-591 -590
589 590 591
-592 4
-592 104
-4 -104 592
-593 -104
-593 -473
104 473 593
-594 -592
-594 -593
592 593 594
-595 5
-595 104
-5 -104 595
-596 -104
-596 -476
104 476 596
-597 -595
-597 -596
595 596 597
-598 6
-598 104
-6 -104 598
-599 -104
-599 -479
104 479 599
-600 -598
-600 -599
598 599 600
-601 7
-601 104
-7 -104 601
-602 -104
-602 -482
104 482 602
-603 -601
-603 -602
601 602 603
-604 8
-604 104
-8 -104 604
-605 -104
-605 -485
104 485 605
-606 -604
-606 -605
604 605 606
-607 9
-607 104
-9 -104 607
-608 -104
-608 -488
104 488 608
-609 -607
-609 -608
607 608 609
-610 10
-610 104
-10 -104 610
-611 -104
-611 -491
104 491 611
-612 -610
-612 -611
610 611 612
-613 11
-613 104
-11 -104 613
-614 -104
-614 -494
104 494 614
-615 -613
-615 -614
613 614 615
-616 12
-616 104
-12 -104 616
-617 -104
-617 -497
104 497 617
-618 -616
-618 -617
616 617 618
-619 13
-619 104
-13 -104 619
-620 -104
-620 -500
104 500 620
-621 -619
-621 -620
619 620 621
-622 14
-622 104
-14 -104 622
-623 -104
-623 -503
104 503 623
-624 -622
-624 -623
622 623 624
-625 15
-625 104
-15 -104 625
-626 -104
-626 -506
104 506 626
-627 -625
-627 -626
625 626 627
-628 16
-628 104
-16 -104 628
-629 -104
-629 -509
104 509 629
-630 -628
-630 -629
628 629 630
-631 17
-631 104
-17 -104 631
-632 -104
-632 -512
104 512 632
-633 -631
-633 -632
631 632 633
-634 18
-634 104
-18 -104 634
-635 -104
-635 -515
104 515 635
-636 -634
-636 -635
634 635 636
-637 19
-637 104
-19 -104 637
-638 -104
-638 -518
104 518 638
-639 -637
-639 -638
637 638 639
-640 20
-640 104
-20 -104 640
-641 -104
-641 -521
104 521 641
-642 -640
-642 -641
640 641 642
-643 21
-643 104
-21 -104 643
-644 -104
-644 -524
104 524 644
-645 -643
-645 -644
643 644 645
-646 22
-646 104
-22 -104 646
-647 -104
-647 -527
104 527 647
-648 -646
-648 -647
646 647 648
-649 23
-649 104
-23 -104 649
-650 -104
-650 -530
104 530 650
-651 -649
-651 -650
649 650 651
-652 24
-652 104
-24 -104 652
-653 -104
-653 -533
104 533 653
-654 -652
-654 -653
652 653 654
-655 -104
-655 -536
104 536 655
-656 -104
-656 -539
104 539 656
-657 -104
-657 -542
104 542 657
-658 -104
-658 -545
104 545 658
-659 -104
-659 -548
104 548 659
-660 -104
-660 -551
104 551 660
-661 -104
-661 -554
104 554 661
-662 -104
-662 -557
104 557 662
-663 -104
-663 -560
104 560 663
-664 -104
-664 -563
104 563 664
-665 -104
-665 -566
104 566 665
-666 -104
-666 -569
104 569 666
-667 -104
-667 -572
104 572 667
-668 -104
-668 -575
104 575 668
-669 -104
-669 -578
104 578 669
-670 -104
-670 -581
104 581 670
-671 -104
-671 582
104 -582 671
-672 -65
-672 464
65 -464 672
-673 25
-673 -672
-25 672 673
673
